projected/problems_b25_r0_d7_m100_s666/_DIMACS/b25_d7_r0_s666_036.cnf
p cnf 167 215 25
c p show 1 2 3 4 5 6 7 8 9 10 11 12 13 14 15 16 17 18 19 20 21 22 23 24 25
-26 -21 9 0
-27 22 20 0
-28 27 0
-28 26 0
-29 -24 -17 0
-30 16 12 0
-31 30 29 0
-32 31 0
-32 28 0
-33 8 0
-33 5 0
-34 -8 2 0
-35 34 0
-35 33 0
-36 22 -3 0
-37 25 -13 0
-38 37 0
-38 36 0
-39 38 0
-39 35 0
-40 39 32 0
-41 -9 21 0
-42 16 -15 0
-43 42 41 0
-44 -9 0
-44 7 0
-45 -14 -1 0
-46 45 44 0
-47 46 43 0
-48 -17 -6 0
-49 -24 13 0
-50 49 0
-50 48 0
-51 24 0
-51 -13 0
-52 17 0
-52 6 0
-53 52 0
-53 51 0
-54 53 50 0
-55 -18 -16 0
-56 -3 18 0
-57 56 0
-57 55 0
-58 57 0
-58 54 0
-59 58 47 0
-60 59 0
-60 40 0
-61 -16 0
-61 6 0
-62 -16 21 0
-63 -21 16 0
-64 63 0
-64 62 0
-65 64 0
-65 61 0
-66 -1 -17 0
-67 17 1 0
-68 67 0
-68 66 0
-69 21 0
-69 -8 0
-70 69 0
-70 68 0
-71 70 0
-71 65 0
-72 18 0
-72 23 0
-73 -15 0
-73 -22 0
-74 73 72 0
-75 -18 0
-75 3 0
-76 14 0
-76 22 0
-77 76 75 0
-78 77 74 0
-79 78 71 0
-80 17 0
-80 -16 0
-81 3 0
-81 21 0
-82 81 80 0
-83 -11 0
-83 3 0
-84 -3 0
-84 11 0
-85 84 83 0
-86 -12 0
-86 6 0
-87 86 0
-87 85 0
-88 87 0
-88 82 0
-89 -25 18 0
-90 -4 14 0
-91 90 0
-91 89 0
-92 -23 17 0
-93 -23 16 0
-94 93 92 0
-95 94 91 0
-96 95 88 0
-97 96 79 0
-98 97 60 0
-99 20 16 0
-100 15 0
-100 19 0
-101 100 99 0
-102 -7 0
-102 25 0
-103 -11 0
-103 9 0
-104 103 0
-104 102 0
-105 104 0
-105 101 0
-106 3 -10 0
-107 3 0
-107 25 0
-108 107 106 0
-109 6 0
-109 -4 0
-110 -11 2 0
-111 110 109 0
-112 111 0
-112 108 0
-113 112 105 0
-114 4 0
-114 -20 0
-115 -4 17 0
-116 115 0
-116 114 0
-117 12 0
-117 11 0
-118 -13 0
-118 18 0
-119 118 117 0
-120 119 0
-120 116 0
-121 22 0
-121 -9 0
-122 -22 -19 0
-123 122 121 0
-124 -25 0
-124 21 0
-125 -21 0
-125 25 0
-126 125 124 0
-127 -2 0
-127 14 0
-128 127 0
-128 126 0
-129 128 123 0
-130 129 120 0
-131 130 113 0
-132 14 23 0
-133 22 0
-133 -1 0
-134 133 132 0
-135 -17 -22 0
-136 11 -2 0
-137 136 0
-137 135 0
-138 137 134 0
-139 -13 -22 0
-140 -21 0
-140 -20 0
-141 140 139 0
-142 21 20 0
-143 13 0
-143 22 0
-144 143 142 0
-145 144 0
-145 141 0
-146 -15 0
-146 2 0
-147 2 0
-147 10 0
-148 147 146 0
-149 148 145 0
-150 149 138 0
-151 -3 -13 0
-152 -4 -12 0
-153 152 151 0
-154 1 0
-154 12 0
-155 16 3 0
-156 155 154 0
-157 156 153 0
-158 -25 0
-158 3 0
-159 -3 0
-159 -23 0
-160 159 0
-160 158 0
-161 -8 -19 0
-162 -13 0
-162 19 0
-163 162 0
-163 161 0
-164 163 160 0
-165 164 157 0
-166 165 0
-166 150 0
-167 166 0
-167 131 0
167 98 0
-49 -51 0
-48 -52 0
-52 -48 0
-140 -142 0
-142 -140 0
-139 -143 0
