projected/problems_b25_r0_d7_m100_s666/b25_d7_r0_s666_036.smt2
(set-logic QF_UF)
(declare-fun A0 () Bool)
(declare-fun A1 () Bool)
(declare-fun A2 () Bool)
(declare-fun A3 () Bool)
(declare-fun A4 () Bool)
(declare-fun A5 () Bool)
(declare-fun A6 () Bool)
(declare-fun A7 () Bool)
(declare-fun A8 () Bool)
(declare-fun A9 () Bool)
(declare-fun A10 () Bool)
(declare-fun A11 () Bool)
(declare-fun A12 () Bool)
(declare-fun A13 () Bool)
(declare-fun A14 () Bool)
(declare-fun A15 () Bool)
(declare-fun A16 () Bool)
(declare-fun A17 () Bool)
(declare-fun A18 () Bool)
(declare-fun A19 () Bool)
(declare-fun A20 () Bool)
(declare-fun A21 () Bool)
(declare-fun A22 () Bool)
(declare-fun A23 () Bool)
(declare-fun A24 () Bool)
(assert (let ((.def_0 (not A20))) (let ((.def_1 (or .def_0 A8))) (let ((.def_2 (or A21 A19))) (let ((.def_3 (and .def_2 .def_1))) (let ((.def_4 (and A23 A16))) (let ((.def_5 (or A15 A11))) (let ((.def_6 (not .def_5))) (let ((.def_7 (and .def_6 .def_4))) (let ((.def_8 (not .def_7))) (let ((.def_9 (and .def_8 .def_3))) (let ((.def_10 (and A7 A4))) (let ((.def_11 (not A1))) (let ((.def_12 (and A7 .def_11))) (let ((.def_13 (not .def_12))) (let ((.def_14 (and .def_13 .def_10))) (let ((.def_15 (not A2))) (let ((.def_16 (or A21 .def_15))) (let ((.def_17 (not .def_16))) (let ((.def_18 (not A24))) (let ((.def_19 (and .def_18 A12))) (let ((.def_20 (or .def_19 .def_17))) (let ((.def_21 (not .def_20))) (let ((.def_22 (and .def_21 .def_14))) (let ((.def_23 (or .def_22 .def_9))) (let ((.def_24 (not .def_23))) (let ((.def_25 (and A8 .def_0))) (let ((.def_26 (not A15))) (let ((.def_27 (and .def_26 A14))) (let ((.def_28 (and .def_27 .def_25))) (let ((.def_29 (not A8))) (let ((.def_30 (and .def_29 A6))) (let ((.def_31 (and A13 A0))) (let ((.def_32 (not .def_31))) (let ((.def_33 (or .def_32 .def_30))) (let ((.def_34 (not .def_33))) (let ((.def_35 (and .def_34 .def_28))) (let ((.def_36 (not A23))) (let ((.def_37 (or .def_36 A12))) (let ((.def_38 (not A5))) (let ((.def_39 (not A16))) (let ((.def_40 (or .def_39 .def_38))) (let ((.def_41 (not .def_40))) (let ((.def_42 (= .def_41 .def_37))) (let ((.def_43 (and A17 A15))) (let ((.def_44 (or .def_15 A17))) (let ((.def_45 (not .def_44))) (let ((.def_46 (or .def_45 .def_43))) (let ((.def_47 (or .def_46 .def_42))) (let ((.def_48 (and .def_47 .def_35))) (let ((.def_49 (or .def_48 .def_24))) (let ((.def_50 (not .def_49))) (let ((.def_51 (and .def_26 A5))) (let ((.def_52 (= A20 A15))) (let ((.def_53 (and .def_52 .def_51))) (let ((.def_54 (not .def_53))) (let ((.def_55 (= .def_39 A0))) (let ((.def_56 (not A7))) (let ((.def_57 (and A20 .def_56))) (let ((.def_58 (and .def_57 .def_55))) (let ((.def_59 (not .def_58))) (let ((.def_60 (or .def_59 .def_54))) (let ((.def_61 (not A22))) (let ((.def_62 (not A17))) (let ((.def_63 (or .def_62 .def_61))) (let ((.def_64 (or A14 A21))) (let ((.def_65 (and .def_64 .def_63))) (let ((.def_66 (or A17 .def_15))) (let ((.def_67 (not .def_66))) (let ((.def_68 (and A13 A21))) (let ((.def_69 (or .def_68 .def_67))) (let ((.def_70 (not .def_69))) (let ((.def_71 (and .def_70 .def_65))) (let ((.def_72 (and .def_71 .def_60))) (let ((.def_73 (and A16 .def_26))) (let ((.def_74 (or .def_15 .def_0))) (let ((.def_75 (not .def_74))) (let ((.def_76 (or .def_75 .def_73))) (let ((.def_77 (not A10))) (let ((.def_78 (= .def_15 .def_77))) (let ((.def_79 (not .def_78))) (let ((.def_80 (not A11))) (let ((.def_81 (and .def_80 A5))) (let ((.def_82 (and .def_81 .def_79))) (let ((.def_83 (and .def_82 .def_76))) (let ((.def_84 (or .def_18 A17))) (let ((.def_85 (not .def_84))) (let ((.def_86 (not A3))) (let ((.def_87 (or .def_86 A13))) (let ((.def_88 (not .def_87))) (let ((.def_89 (or .def_88 .def_85))) (let ((.def_90 (not .def_89))) (let ((.def_91 (and A22 .def_39))) (let ((.def_92 (not .def_91))) (let ((.def_93 (or .def_61 A15))) (let ((.def_94 (or .def_93 .def_92))) (let ((.def_95 (or .def_94 .def_90))) (let ((.def_96 (or .def_95 .def_83))) (let ((.def_97 (not .def_96))) (let ((.def_98 (and .def_97 .def_72))) (let ((.def_99 (not .def_98))) (let ((.def_100 (or .def_99 .def_50))) (let ((.def_101 (or A19 A15))) (let ((.def_102 (not .def_101))) (let ((.def_103 (not A18))) (let ((.def_104 (not A14))) (let ((.def_105 (or .def_104 .def_103))) (let ((.def_106 (and .def_105 .def_102))) (let ((.def_107 (not A6))) (let ((.def_108 (and .def_107 A24))) (let ((.def_109 (not .def_108))) (let ((.def_110 (and .def_77 A8))) (let ((.def_111 (not .def_110))) (let ((.def_112 (or .def_111 .def_109))) (let ((.def_113 (or .def_112 .def_106))) (let ((.def_114 (not .def_113))) (let ((.def_115 (and .def_15 A9))) (let ((.def_116 (not .def_115))) (let ((.def_117 (and A2 A24))) (let ((.def_118 (or .def_117 .def_116))) (let ((.def_119 (not .def_118))) (let ((.def_120 (and A5 .def_86))) (let ((.def_121 (or .def_77 A1))) (let ((.def_122 (or .def_121 .def_120))) (let ((.def_123 (not .def_122))) (let ((.def_124 (or .def_123 .def_119))) (let ((.def_125 (not .def_124))) (let ((.def_126 (or .def_125 .def_114))) (let ((.def_127 (or .def_86 A19))) (let ((.def_128 (or .def_86 A16))) (let ((.def_129 (not .def_128))) (let ((.def_130 (or .def_129 .def_127))) (let ((.def_131 (or .def_80 .def_77))) (let ((.def_132 (or A12 .def_62))) (let ((.def_133 (and .def_132 .def_131))) (let ((.def_134 (or .def_133 .def_130))) (let ((.def_135 (not .def_134))) (let ((.def_136 (and A21 .def_29))) (let ((.def_137 (and A21 A18))) (let ((.def_138 (not .def_137))) (let ((.def_139 (or .def_138 .def_136))) (let ((.def_140 (= .def_0 .def_18))) (let ((.def_141 (not A13))) (let ((.def_142 (or A1 .def_141))) (let ((.def_143 (or .def_142 .def_140))) (let ((.def_144 (not .def_143))) (let ((.def_145 (or .def_144 .def_139))) (let ((.def_146 (or .def_145 .def_135))) (let ((.def_147 (or .def_146 .def_126))) (let ((.def_148 (not .def_147))) (let ((.def_149 (or A13 A22))) (let ((.def_150 (not A21))) (let ((.def_151 (or .def_150 A0))) (let ((.def_152 (not .def_151))) (let ((.def_153 (or .def_152 .def_149))) (let ((.def_154 (not .def_153))) (let ((.def_155 (and A16 A21))) (let ((.def_156 (not .def_155))) (let ((.def_157 (and .def_77 A1))) (let ((.def_158 (not .def_157))) (let ((.def_159 (and .def_158 .def_156))) (let ((.def_160 (not .def_159))) (let ((.def_161 (and .def_160 .def_154))) (let ((.def_162 (not A19))) (let ((.def_163 (and .def_0 .def_162))) (let ((.def_164 (not .def_163))) (let ((.def_165 (not A12))) (let ((.def_166 (or .def_165 .def_150))) (let ((.def_167 (= .def_166 .def_164))) (let ((.def_168 (not .def_167))) (let ((.def_169 (or A14 .def_11))) (let ((.def_170 (and A1 A9))) (let ((.def_171 (not .def_170))) (let ((.def_172 (and .def_171 .def_169))) (let ((.def_173 (and .def_172 .def_168))) (let ((.def_174 (and .def_173 .def_161))) (let ((.def_175 (and A2 A12))) (let ((.def_176 (and A3 A11))) (let ((.def_177 (and .def_176 .def_175))) (let ((.def_178 (and A0 A11))) (let ((.def_179 (or A15 A2))) (let ((.def_180 (or .def_179 .def_178))) (let ((.def_181 (not .def_180))) (let ((.def_182 (and .def_181 .def_177))) (let ((.def_183 (or A24 .def_15))) (let ((.def_184 (not .def_183))) (let ((.def_185 (or A2 A22))) (let ((.def_186 (not .def_185))) (let ((.def_187 (and .def_186 .def_184))) (let ((.def_188 (or .def_56 .def_103))) (let ((.def_189 (not .def_188))) (let ((.def_190 (or A12 .def_103))) (let ((.def_191 (or .def_190 .def_189))) (let ((.def_192 (not .def_191))) (let ((.def_193 (or .def_192 .def_187))) (let ((.def_194 (not .def_193))) (let ((.def_195 (and .def_194 .def_182))) (let ((.def_196 (or .def_195 .def_174))) (let ((.def_197 (or .def_196 .def_148))) (let ((.def_198 (not .def_197))) (let ((.def_199 (or .def_198 .def_100))) .def_199)))))))))))))))))))))))))))))))))))))))))))))))))))))))))))))))))))))))))))))))))))))))))))))))))))))))))))))))))))))))))))))))))))))))))))))))))))))))))))))))))))))))))))))))))))))))))))))))))))))))))
(check-sat)
